p cnf 7 25 
c Factors encoded in variables 1-5 and 6-7
c Target number: 58
c Factors: 29 x 2
5 2 6 0
5 4 3 1 0
-5 -4 -6 0
4 3 2 0
1 6 0
4 2 1 6 0
5 3 -2 -1 0
2 3 4 5 0
3 1 6 0
-5 -4 3 0
-4 -3 -6 0
4 3 2 6 0
3 6 0
7 0
4 1 0
-2 6 0
5 4 0
-1 -6 0
-3 2 -6 0
5 3 0
-5 -3 -2 -6 0
4 6 0
3 1 0
4 -3 -2 6 0
5 -4 -3 -2 0
